%%
% Autogenerated by /opt/prj/battleships-ai/src/server/solver.py, instance 2 8x8 [7] #2 <zo2p1e>
% Source: https://www.puzzle-battleships.com/?size=2
%%

size = 8;
hints_num = 2;
hints = [| 6, 2 | 8, 3 |];
ships_num = 9;

constr_rows = [3, 4, 2, 1, 0, 4, 3, 2];
constr_cols = [3, 1, 5, 0, 6, 0, 2, 2];

given_ships = [|
<>, <>, <>, <>, 1, |
<>, <>, <>, <>, 1, |
<>, <>, <>, <>, 1, |
<>, <>, <>, <>, 2, |
<>, <>, <>, <>, 2, |
<>, <>, <>, <>, 2, |
<>, <>, <>, <>, 3, |
<>, <>, <>, <>, 3, |
<>, <>, <>, <>, 4  |];

